c description: Random 3-CNF over 21 variables and 89 clauses
c generator: CNFgen (0.9.2)
c copyright: (C) 2012-2022 Massimo Lauria <massimo.lauria@uniroma1.it>
c url: https://massimolauria.net/cnfgen
c command line: cnfgen --output CNF_4.28/21_bit_89_654.cnf randkcnf 3 21 89
c
p cnf 21 89
-6 17 -19 0
-7 -18 -21 0
-7 8 16 0
15 16 -21 0
-11 -18 -21 0
-10 15 21 0
5 -8 -19 0
5 9 21 0
6 14 -19 0
-7 12 18 0
-6 -13 18 0
-3 17 -18 0
-2 -6 -14 0
3 8 -14 0
5 16 19 0
-2 3 -16 0
-7 8 17 0
-3 -13 -20 0
-4 -9 21 0
14 -15 20 0
-2 -13 15 0
10 14 16 0
9 10 -21 0
2 7 -20 0
-1 7 -15 0
3 -12 18 0
-6 11 -14 0
7 16 -17 0
-9 -11 20 0
-11 12 17 0
-3 -11 -21 0
9 -13 17 0
1 -7 21 0
-2 12 -16 0
3 7 19 0
-6 9 -11 0
-2 9 -16 0
7 15 -20 0
5 -17 -21 0
5 12 14 0
-1 3 -6 0
-4 -13 16 0
-4 11 15 0
-6 11 -12 0
-9 -16 17 0
4 -12 21 0
9 -11 17 0
-3 9 20 0
-7 -10 -12 0
3 17 19 0
6 -8 -11 0
-2 -7 -17 0
3 7 -17 0
-14 15 20 0
1 13 -14 0
-2 -15 -17 0
-8 -16 -20 0
-1 3 -11 0
5 11 -12 0
-5 -8 9 0
-2 -4 10 0
1 10 -17 0
-10 16 17 0
-4 -9 15 0
11 17 21 0
3 11 -13 0
-1 3 5 0
-7 14 -17 0
-6 -17 -18 0
-5 -11 21 0
-1 7 19 0
4 -9 -13 0
-5 8 21 0
-3 -4 5 0
3 4 21 0
10 -12 18 0
-14 17 21 0
3 -15 -17 0
11 18 21 0
3 10 11 0
4 5 -11 0
4 13 -17 0
-4 5 13 0
12 17 20 0
4 5 16 0
3 -10 15 0
19 -20 -21 0
3 -5 15 0
6 -9 -19 0
